n_res = 4;
rc = [ 0, 0, 0, 0 ];
n_tasks = 30;
d = [ 9, 3, 3, 6, 6, 9, 7, 10, 1, 8, 7, 5, 4, 7, 9, 4, 2, 2, 2, 7, 8, 6, 1, 5, 10, 10, 5, 1, 3, 4 ];
rr = [| 0, 0, 0, 0, 0, 0, 0, 0, 0, 0, 0, 0, 0, 0, 0, 0, 0, 0, 0, 0, 0, 0, 0, 0, 0, 0, 0, 0, 0, 0
      | 0, 0, 0, 0, 0, 0, 0, 0, 0, 0, 0, 0, 0, 0, 0, 0, 0, 0, 0, 0, 0, 0, 0, 0, 0, 0, 0, 0, 0, 0
      | 0, 0, 0, 0, 0, 0, 0, 0, 0, 0, 0, 0, 0, 0, 0, 0, 0, 0, 0, 0, 0, 0, 0, 0, 0, 0, 0, 0, 0, 0
      | 0, 0, 0, 0, 0, 0, 0, 0, 0, 0, 0, 0, 0, 0, 0, 0, 0, 0, 0, 0, 0, 0, 0, 0, 0, 0, 0, 0, 0, 0 |];
suc = [ { 12, 18, 19 },
       { 4, 5, 10 },
       { 14, 20, 24 },
       { 18, 30 },
       { 6, 9 },
       { 7, 8, 21 },
       { 15 },
       { 11, 15, 23 },
       { 13, 25 },
       { 29 },
       { 17 },
       { 23 },
       { 16 },
       { 28 },
       { 28 },
       { 27, 28 },
       { 24 },
       { 27 },
       { 25 },
       { 26 },
       { 22 },
       { 25, 26 },
       { 24 },
       { 27 },
       { 29 },
       { 30 },
       { 29 },
       {  },
       {  },
       {  } ];
